objective value:                 0.000860615010000062
x_1_2                                               1 	(obj:0)
x_2_3                                               1 	(obj:0)
x_3_2                                               1 	(obj:0)
x_4_4                                               1 	(obj:0)
x_5_4                                               1 	(obj:0)
x_6_3                                               1 	(obj:0)
x_7_3                                               1 	(obj:0)
x_8_2                                               1 	(obj:0)
x_9_4                                               1 	(obj:0)
x_10_4                                              1 	(obj:0)
x_11_2                                              1 	(obj:0)
x_12_2                                              1 	(obj:0)
x_13_3                                              1 	(obj:0)
x_14_3                                              1 	(obj:0)
x_15_4                                              1 	(obj:0)
x_16_2                                              1 	(obj:0)
x_17_3                                              1 	(obj:0)
x_18_3                                              1 	(obj:0)
x_19_2                                              1 	(obj:0)
x_20_2                                              1 	(obj:0)
ind_2                                               1 	(obj:0)
abs_2_4                                             1 	(obj:0)
ind_3                                               1 	(obj:0)
abs_3_2                                             1 	(obj:0)
ind_4                                               1 	(obj:0)
abs_4_3                                             1 	(obj:0)
epsI                             0.000860615010000062 	(obj:1)
prodt_x_19_2_t_x_20_2_coh_2                         1 	(obj:0)
prodt_x_1_2_t_x_2_2_more_coh_2       3.89672506049999 	(obj:0)
prodt_x_3_2_t_x_4_2_more_coh_2           3.1688434981 	(obj:0)
prodt_x_8_2_t_x_11_2_more_coh_2          3.4366849578 	(obj:0)
prodt_x_11_2_t_x_12_2_more_coh_2         2.4169023778 	(obj:0)
prodt_x_12_2_t_x_13_2_more_coh_2         2.5288199582 	(obj:0)
prodt_x_16_2_t_x_17_2_more_coh_2          1.074467568 	(obj:0)
prodt_x_2_3_t_x_3_3_more_coh_3           6.0953716627 	(obj:0)
prodt_x_6_3_t_x_7_3_more_coh_3           4.6597626902 	(obj:0)
prodt_x_7_3_t_x_9_3_more_coh_3           3.7590756906 	(obj:0)
prodt_x_13_3_t_x_15_3_more_coh_3         3.5622705303 	(obj:0)
prodt_x_14_3_t_x_15_3_more_coh_3         0.7605846161 	(obj:0)
prodt_x_17_3_t_x_18_3_more_coh_3         1.1776447259 	(obj:0)
prodt_x_4_4_t_x_5_4_more_coh_4          2.93837209905 	(obj:0)
prodt_x_5_4_t_x_6_4_more_coh_4           2.6401309297 	(obj:0)
prodt_x_9_4_t_x_14_4_more_coh_4          2.2506581968 	(obj:0)
prodt_x_10_4_t_x_11_4_more_coh_4          1.813504208 	(obj:0)
prodt_x_1_2_t_x_2_2_more_irrev1_2_1     1.37603542768648 	(obj:0)
prodt_x_1_2_t_x_2_2_more_irrev2_2_1    -1.37603542768648 	(obj:0)
prodt_x_1_2_t_x_2_3_more_irrev1_3_1     1.27097618292482 	(obj:0)
prodt_x_1_2_t_x_2_3_more_irrev2_3_1    -1.27097618292482 	(obj:0)
prodt_x_1_2_t_x_2_3_more_irrev1_3_2    -1.27097618292482 	(obj:0)
prodt_x_2_3_t_x_3_2_more_irrev1_3_2   -0.655617458988675 	(obj:0)
prodt_x_3_2_t_x_4_3_more_irrev1_3_2    -3.53924720303617 	(obj:0)
prodt_x_6_3_t_x_7_2_more_irrev1_3_2    -3.74606246756942 	(obj:0)
prodt_x_7_3_t_x_10_2_more_irrev1_3_2   -0.363956490000002 	(obj:0)
prodt_x_8_2_t_x_9_3_more_irrev1_3_2    -1.33226765334138 	(obj:0)
prodt_x_11_2_t_x_13_3_more_irrev1_3_2    -2.84408659914866 	(obj:0)
prodt_x_12_2_t_x_14_3_more_irrev1_3_2   -0.315294220000002 	(obj:0)
prodt_x_13_3_t_x_17_2_more_irrev1_3_2    -0.87053864833664 	(obj:0)
prodt_x_14_3_t_x_15_2_more_irrev1_3_2    -2.20425651882995 	(obj:0)
prodt_x_16_2_t_x_20_3_more_irrev1_3_2   -0.580662741093809 	(obj:0)
prodt_x_17_3_t_x_18_2_more_irrev1_3_2   -0.146139369509229 	(obj:0)
prodt_x_18_3_t_x_19_2_more_irrev1_3_2     1.74897540290723 	(obj:0)
prodt_x_1_2_t_x_2_3_more_irrev2_3_2     1.27097618292482 	(obj:0)
prodt_x_2_3_t_x_3_2_more_irrev2_3_2    0.655617458988675 	(obj:0)
prodt_x_3_2_t_x_4_3_more_irrev2_3_2     3.53924720303617 	(obj:0)
prodt_x_6_3_t_x_7_2_more_irrev2_3_2      3.7460624675694 	(obj:0)
prodt_x_7_3_t_x_10_2_more_irrev2_3_2    0.363956490000002 	(obj:0)
prodt_x_8_2_t_x_9_3_more_irrev2_3_2     1.33226765334138 	(obj:0)
prodt_x_11_2_t_x_13_3_more_irrev2_3_2     2.84408659914866 	(obj:0)
prodt_x_12_2_t_x_14_3_more_irrev2_3_2    0.315294220000003 	(obj:0)
prodt_x_13_3_t_x_17_2_more_irrev2_3_2     0.87053864833664 	(obj:0)
prodt_x_14_3_t_x_15_2_more_irrev2_3_2     2.20425651882995 	(obj:0)
prodt_x_16_2_t_x_20_3_more_irrev2_3_2    0.580662741093809 	(obj:0)
prodt_x_17_3_t_x_18_2_more_irrev2_3_2    0.146139369509229 	(obj:0)
prodt_x_18_3_t_x_19_2_more_irrev2_3_2     1.74897540290723 	(obj:0)
prodt_x_1_2_t_x_5_4_more_irrev1_4_1    -2.64888288692738 	(obj:0)
prodt_x_1_2_t_x_5_4_more_irrev2_4_1     2.64888288692738 	(obj:0)
prodt_x_1_2_t_x_5_4_more_irrev1_4_2     2.64888288692738 	(obj:0)
prodt_x_3_2_t_x_4_4_more_irrev1_4_2    0.329826601258993 	(obj:0)
prodt_x_4_4_t_x_7_2_more_irrev1_4_2     1.12690534999981 	(obj:0)
prodt_x_5_4_t_x_7_2_more_irrev1_4_2     2.85693344705662 	(obj:0)
prodt_x_8_2_t_x_9_4_more_irrev1_4_2     1.73758769264321 	(obj:0)
prodt_x_9_4_t_x_11_2_more_irrev1_4_2     2.79947888833707 	(obj:0)
prodt_x_10_4_t_x_12_2_more_irrev1_4_2    0.796355329587419 	(obj:0)
prodt_x_11_2_t_x_13_4_more_irrev1_4_2    0.188768905043706 	(obj:0)
prodt_x_12_2_t_x_14_4_more_irrev1_4_2    0.755133140000002 	(obj:0)
prodt_x_15_4_t_x_16_2_more_irrev1_4_2     1.67489120280076 	(obj:0)
prodt_x_1_2_t_x_5_4_more_irrev2_4_2    -2.64888288692738 	(obj:0)
prodt_x_3_2_t_x_4_4_more_irrev2_4_2   -0.329826601258994 	(obj:0)
prodt_x_4_4_t_x_7_2_more_irrev2_4_2     -1.1269053499998 	(obj:0)
prodt_x_5_4_t_x_7_2_more_irrev2_4_2    -2.85693344705662 	(obj:0)
prodt_x_8_2_t_x_9_4_more_irrev2_4_2    -1.73758769264321 	(obj:0)
prodt_x_9_4_t_x_11_2_more_irrev2_4_2    -2.79947888833707 	(obj:0)
prodt_x_10_4_t_x_12_2_more_irrev2_4_2   -0.796355329587419 	(obj:0)
prodt_x_11_2_t_x_13_4_more_irrev2_4_2   -0.188768905043706 	(obj:0)
prodt_x_12_2_t_x_14_4_more_irrev2_4_2   -0.755133140000002 	(obj:0)
prodt_x_15_4_t_x_16_2_more_irrev2_4_2    -1.67489120280076 	(obj:0)
prodt_x_2_3_t_x_4_4_more_irrev1_4_3    -2.42826743823158 	(obj:0)
prodt_x_4_4_t_x_7_3_more_irrev1_4_3          -2.23574711 	(obj:0)
prodt_x_5_4_t_x_7_3_more_irrev1_4_3   -0.648822492917451 	(obj:0)
prodt_x_6_3_t_x_7_4_more_irrev1_4_3    -1.07729531216604 	(obj:0)
prodt_x_7_3_t_x_8_4_more_irrev1_4_3    -1.58265256000001 	(obj:0)
prodt_x_9_4_t_x_11_3_more_irrev1_4_3   -0.768541145764806 	(obj:0)
prodt_x_10_4_t_x_12_3_more_irrev1_4_3    -2.43331028180789 	(obj:0)
prodt_x_13_3_t_x_14_4_more_irrev1_4_3                   -1 	(obj:0)
prodt_x_14_3_t_x_16_4_more_irrev1_4_3  -0.0400477656044295 	(obj:0)
prodt_x_15_4_t_x_16_3_more_irrev1_4_3    -1.43413443554068 	(obj:0)
prodt_x_2_3_t_x_4_4_more_irrev2_4_3     2.42826743823158 	(obj:0)
prodt_x_4_4_t_x_7_3_more_irrev2_4_3           2.23574711 	(obj:0)
prodt_x_5_4_t_x_7_3_more_irrev2_4_3    0.648822492917451 	(obj:0)
prodt_x_6_3_t_x_7_4_more_irrev2_4_3     1.07729531216604 	(obj:0)
prodt_x_7_3_t_x_8_4_more_irrev2_4_3     1.58265256000001 	(obj:0)
prodt_x_9_4_t_x_11_3_more_irrev2_4_3    0.768541145764806 	(obj:0)
prodt_x_10_4_t_x_12_3_more_irrev2_4_3     2.43331028180789 	(obj:0)
prodt_x_13_3_t_x_14_4_more_irrev2_4_3                    1 	(obj:0)
prodt_x_14_3_t_x_16_4_more_irrev2_4_3   0.0400477656044295 	(obj:0)
prodt_x_15_4_t_x_16_3_more_irrev2_4_3     1.43413443554068 	(obj:0)
SCIP Status        : solving was interrupted [time limit reached]
Total Time         :    3600.00
  solving          :    3600.00
  presolving       :       0.05 (included in solving)
  reading          :       0.00
  copying          :       1.29 (129 #copies) (minimal 0.00, maximal 0.02, average 0.01)
Original Problem   :
  Problem name     : ../instances/Pot4/Pot4_T_20B_alpha=15.txt.spa
  Variables        : 101 (100 binary, 0 integer, 0 implicit integer, 1 continuous)
  Constraints      : 193 initial, 193 maximal
  Objective sense  : maximize
Presolved Problem  :
  Problem name     : t_../instances/Pot4/Pot4_T_20B_alpha=15.txt.spa
  Variables        : 590 (92 binary, 0 integer, 16 implicit integer, 482 continuous)
  Constraints      : 2015 initial, 8008 maximal
Presolvers         :   ExecTime  SetupTime  Calls  FixedVars   AggrVars   ChgTypes  ChgBounds   AddHoles    DelCons    AddCons   ChgSides   ChgCoefs
  boundshift       :       0.00       0.00      0          0          0          0          0          0          0          0          0          0
  components       :       0.00       0.00      1          0          0          0          0          0          0          0          0          0
  convertinttobin  :       0.00       0.00      0          0          0          0          0          0          0          0          0          0
  domcol           :       0.00       0.00      1          0          0          0          0          0          0          0          0          0
  dualagg          :       0.00       0.00      0          0          0          0          0          0          0          0          0          0
  dualinfer        :       0.00       0.00      0          0          0          0          0          0          0          0          0          0
  gateextraction   :       0.00       0.00      3          0          0          0          0          0        108         34          0          0
  implfree         :       0.00       0.00      0          0          0          0          0          0          0          0          0          0
  implics          :       0.00       0.00      4          0          0          0          0          0          0          0          0          0
  inttobinary      :       0.00       0.00      0          0          0          0          0          0          0          0          0          0
  redvub           :       0.00       0.00      0          0          0          0          0          0          0          0          0          0
  stuffing         :       0.00       0.00      1          0          0          0          0          0          0          0          0          0
  trivial          :       0.00       0.00      7          0          0          0          0          0          0          0          0          0
  tworowbnd        :       0.00       0.00      0          0          0          0          0          0          0          0          0          0
  dualfix          :       0.00       0.00      7          4          0          0          0          0          0          0          0          0
  genvbounds       :       0.00       0.00      0          0          0          0          0          0          0          0          0          0
  probing          :       0.03       0.00      1          0          0          0          4          0          0          0          0          0
  pseudoobj        :       0.00       0.00      0          0          0          0          0          0          0          0          0          0
  varbound         :       0.00       0.00      9          0          0          0          0          0         28         28          0          0
  setppc           :       0.00       0.00     12          0          0          0          0          0          0          0          0          0
  and              :       0.00       0.00      4          0         12          0          0          0         12          0          0          0
  linear           :       0.01       0.00      9          3          1          0          4          0          7          0         12         12
  logicor          :       0.00       0.00      7          0          0          0          0          0          0          0          0          0
  bounddisjunction :       0.00       0.00      0          0          0          0          0          0          0          0          0          0
  quadratic        :       0.01       0.00      2          0          0          0          0          0          0       1915          0          0
  root node        :          -          -      -          2          -          -         86          -          -          -          -          -
Constraints        :     Number  MaxNumber  #Separate #Propagate    #EnfoLP    #EnfoPS     #Check   #ResProp    Cutoffs    DomReds       Cuts    Applied      Conss   Children
  integral         :          0          0          0          0    1988854          0     341786          0          0      47807          0          0        127    3930052
  varbound         :        869        869         95   12071297      19764          0     109759    4459748      77775   81997666          0          0          0          0
  setppc           :        110        110         95   11992853      19763          0       1961    2300418      16590    5150754         15          0          0          0
  and              :         22         22     225464    1213086      11692          0       1625     414990          0     108986       4921       4907          0          0
  linear           :        979        979         95   11976936      14341          0       1367    2286047     296087  125933592     589167     588950          0          0
  logicor          :         35+       970         94    3331752          0          0          0      46618       3290     166287          6          5          0          0
  bounddisjunction :          0+      5199          0    5776047          0          0          0     755286       8271    8596086          0          0          0          0
  countsols        :          0          0          0          0          4          0     231510          0          0          0          0          0          0          0
Constraint Timings :  TotalTime  SetupTime   Separate  Propagate     EnfoLP     EnfoPS      Check    ResProp    SB-Prop
  integral         :      19.87       0.00       0.00       0.00      19.78       0.00       0.09       0.00       0.00
  varbound         :      73.86       0.00       0.00      72.47       0.10       0.00       0.42       0.74       0.13
  setppc           :      43.48       0.00       0.00      42.78       0.01       0.00       0.00       0.58       0.11
  and              :       0.77       0.00       0.10       0.50       0.00       0.00       0.01       0.16       0.00
  linear           :     206.34       0.00       0.01     203.75       0.45       0.00       0.01       1.65       0.47
  logicor          :      20.60       0.00       0.00      20.56       0.00       0.00       0.00       0.03       0.01
  bounddisjunction :     170.29       0.00       0.00     170.09       0.00       0.00       0.00       0.18       0.02
  countsols        :       0.00       0.00       0.00       0.00       0.00       0.00       0.00       0.00       0.00
Propagators        : #Propagate   #ResProp    Cutoffs    DomReds
  dualfix          :          2          0          0          0
  genvbounds       :          0          0          0          0
  obbt             :          0          0          0          0
  probing          :          0          0          0          0
  pseudoobj        :   12570952          0       4094         83
  redcost          :    4409363          0         71     726432
  rootredcost      :          5          0          0          1
  vbounds          :   14057050      14229         17      62242
Propagator Timings :  TotalTime  SetupTime   Presolve  Propagate    ResProp    SB-Prop
  dualfix          :       0.00       0.00       0.00       0.00       0.00       0.00
  genvbounds       :       1.87       0.00       0.00       1.86       0.00       0.01
  obbt             :       0.00       0.00       0.00       0.00       0.00       0.00
  probing          :       0.03       0.00       0.03       0.00       0.00       0.00
  pseudoobj        :       4.78       0.00       0.00       4.78       0.00       0.00
  redcost          :      24.50       0.00       0.00      24.50       0.00       0.00
  rootredcost      :       2.35       0.00       0.00       2.35       0.00       0.00
  vbounds          :       4.93       0.00       0.00       4.91       0.00       0.02
Conflict Analysis  :       Time      Calls    Success    DomReds  Conflicts   Literals    Reconvs ReconvLits   LP Iters
  propagation      :       6.18     112681     111380          -    1215481       36.7       9983       45.8          -
  infeasible LP    :      12.91      81432      76468          -    1218966       37.9        122       14.3          0
  bound exceed. LP :       0.00          0          0          -          0        0.0          0        0.0          0
  strong branching :       0.00          0          0          -          0        0.0          0        0.0          0
  pseudo solution  :       0.00          0          0          -          0        0.0          0        0.0          -
  applied globally :       4.22          -          -          0     324493       19.9          -          -          -
  applied locally  :          -          -          -          0       2177       35.2          -          -          -
Separators         :   ExecTime  SetupTime      Calls    Cutoffs    DomReds       Cuts    Applied      Conss
  cut pool         :       0.00                    94          -          -       1146          -          -    (maximal pool size: 754)
  cgmip            :       0.00       0.00          0          0          0          0          0          0
  clique           :       0.02       0.00         95          0          0         40         33          0
  closecuts        :       0.00       0.00          0          0          0          0          0          0
  cmir             :       0.02       0.00         10          0          0        183        115          0
  disjunctive      :       0.00       0.00          0          0          0          0          0          0
  eccuts           :       0.00       0.00          0          0          0          0          0          0
  flowcover        :       0.11       0.00         15          0          0        242         22          0
  gomory           :       0.05       0.00         10          0          0          7          7          0
  impliedbounds    :       0.00       0.00         95          0          0        778        156          0
  intobj           :       0.00       0.00          0          0          0          0          0          0
  mcf              :       0.00       0.00          1          0          0          0          0          0
  oddcycle         :       0.00       0.00          0          0          0          0          0          0
  rapidlearning    :       0.00       0.00          0          0          0          0          0          0
  strongcg         :       0.05       0.00         20          0          0         14          1          0
  zerohalf         :       0.00       0.00          0          0          0          0          0          0
Pricers            :   ExecTime  SetupTime      Calls       Vars
  problem variables:       0.00          -          0          0
Branching Rules    :   ExecTime  SetupTime   BranchLP  BranchExt   BranchPS    Cutoffs    DomReds       Cuts      Conss   Children
  allfullstrong    :       0.00       0.00          0          0          0          0          0          0          0          0
  cloud            :       0.00       0.00          0          0          0          0          0          0          0          0
  distribution     :       0.00       0.00          0          0          0          0          0          0          0          0
  fullstrong       :       0.00       0.00          0          0          0          0          0          0          0          0
  inference        :       0.00       0.00          0          0          0          0          0          0          0          0
  leastinf         :       0.00       0.00          0          0          0          0          0          0          0          0
  mostinf          :       0.00       0.00          0          0          0          0          0          0          0          0
  multaggr         :       0.00       0.00          0          0          0          0          0          0          0          0
  nodereopt        :       0.00       0.00          0          0          0          0          0          0          0          0
  pscost           :       0.00       0.00          0          0          0          0          0          0          0          0
  random           :       0.00       0.00          0          0          0          0          0          0          0          0
  relpscost        :      18.84       0.00    1969090          0          0          0      47807          0       -454    3930052
Primal Heuristics  :   ExecTime  SetupTime      Calls      Found       Best
  LP solutions     :       0.00          -          -          4          -
  pseudo solutions :       0.00          -          -          0          -
  strong branching :       0.00          -          -          0          -
  SpaGreedy        :     259.04       0.00     231509          2          1
  actconsdiving    :       0.00       0.00          0          0          0
  bound            :       0.00       0.00          0          0          0
  clique           :       0.00       0.00          0          0          0
  coefdiving       :      33.94       0.00      11130          0          0
  crossover        :       0.89       0.00          0          0          0
  dins             :       0.00       0.00          0          0          0
  distributiondivin:      58.62       0.00      11129          0          0
  dualval          :       0.00       0.00          0          0          0
  feaspump         :      18.94       0.00       2310          0          0
  fixandinfer      :       0.00       0.00          0          0          0
  fracdiving       :      32.74       0.00      11130          0          0
  guideddiving     :      35.21       0.00      11129          0          0
  indicator        :       0.44       0.00          0          0          0
  intdiving        :       0.00       0.00          0          0          0
  intshifting      :       0.59       0.00        239          0          0
  linesearchdiving :      33.75       0.00      11129          0          0
  localbranching   :       0.00       0.00          0          0          0
  mutation         :       0.00       0.00          0          0          0
  nlpdiving        :       0.09       0.00          0          0          0
  objpscostdiving  :      18.57       0.00       2691          0          0
  octane           :       0.00       0.00          0          0          0
  ofins            :       0.00       0.00          0          0          0
  oneopt           :       0.59       0.00          4          0          0
  proximity        :       0.00       0.00          0          0          0
  pscostdiving     :      32.59       0.00      11130          0          0
  randrounding     :       1.20       0.00     108544          0          0
  rens             :       0.20       0.00          1          0          0
  reoptsols        :       0.00       0.00          0          0          0
  rins             :       4.97       0.00         99          0          0
  rootsoldiving    :      20.42       0.00       3536          0          0
  rounding         :       0.68       0.00      19634          0          0
  shiftandpropagate:       0.00       0.00          0          0          0
  shifting         :       1.44       0.00       4930          0          0
  simplerounding   :       0.50       0.00          0          0          0
  subnlp           :       0.67       0.00          0          0          0
  trivial          :       0.00       0.00          2          0          0
  trivialnegation  :       0.00       0.00          0          0          0
  trysol           :       0.71       0.00          0          0          0
  twoopt           :       0.00       0.00          0          0          0
  undercover       :       0.00       0.00          1          0          0
  vbounds          :       0.00       0.00          0          0          0
  veclendiving     :      36.73       0.00      11129          0          0
  zeroobj          :       0.00       0.00          0          0          0
  zirounding       :       0.51       0.00       1000          0          0
  other solutions  :          -          -          -          0          -
Diving Statistics  :      Calls      Nodes   LP Iters Backtracks   MinDepth   MaxDepth   AvgDepth  NLeafSols  MinSolDpt  MaxSolDpt  AvgSolDpt
  actconsdiving    :          0          -          -          -          -          -          -          -          -          -          -
  coefdiving       :      11130      81326     735647      15749         15         46       28.6          -          -          -          -
  distributiondivin:      11129      68357     730877      15377         15         38       27.7          -          -          -          -
  fracdiving       :      11130      77746     778345      17279         16         49       28.2          -          -          -          -
  guideddiving     :      11129      80186     873168      18248         18         49       28.6          -          -          -          -
  linesearchdiving :      11129      72206     768539      17575         16         41       27.6          -          -          -          -
  pscostdiving     :      11130      85917     754673      14664         15         50       29.1          -          -          -          -
  veclendiving     :      11129      77680     757711      19628         15         37       28.0          -          -          -          -
LP                 :       Time      Calls Iterations  Iter/call   Iter/sec  Time-0-It Calls-0-It
  primal LP        :       0.00         15          0       0.00          -       0.00         15
  dual LP          :    1439.55    3935858   59386348      18.02   41253.41      61.37     640628
  lex dual LP      :       0.00          0          0       0.00          -
  barrier LP       :       0.00          0          0       0.00          -       0.00          0
  diving/probing LP:     177.32     290538    7306757      25.15   41206.62
  strong branching :       5.70       5913     188779      31.93   33119.12
    (at root node) :          -         19       1335      70.26          -
  conflict analysis:       0.00          0          0       0.00          -
B&B Tree           :
  number of runs   :          1
  nodes            :    3708318 (1965026 internal, 1743292 leaves)
  nodes (total)    :    3708318 (1965026 internal, 1743292 leaves)
  nodes left       :     210178
  max depth        :         36
  max depth (total):         36
  backtracks       :    1021946 (27.6%)
  delayed cutoffs  :      11301
  repropagations   :     154669 (3821276 domain reductions, 10189 cutoffs)
  avg switch length:       6.29
  switching time   :     575.52
Root Node          :
  First LP value   : +3.00000000000000e+00
  First LP Iters   :        374
  First LP Time    :       0.00
  Final Dual Bound : +7.02908377796633e-03
  Final Root Iters :       2613
Solution           :
  Solutions found  :          6 (5 improvements)
  First Solution   : +7.79867451000005e-04   (in run 1, after 1 nodes, 0.06 seconds, depth 0, found by <SpaGreedy>)
  Gap First Sol.   :   infinite
  Gap Last Sol.    :      60.22 %
  Primal Bound     : +8.60615010000062e-04   (in run 1, after 545461 nodes, 500.20 seconds, depth 31, found by <relaxation>)
  Dual Bound       : +1.18964446570751e-03
  Gap              :      38.23 %
  Avg. Gap         :      38.52 % (138684.88 primal-dual integral)
